LibMLKEM/why3-cvc5/mlkem.adb_352_56_index_check_1.smt2
;; produced by cvc5.drv ;;
(set-logic ALL)
(set-info :smt-lib-version 2.6)
;;; generated by SMT-LIB2 driver
;;; SMT-LIB2 driver: bit-vectors, common part
;;; SMT-LIB2: integer arithmetic
(define-fun __cdiv ((x Int) (y Int)) Int (ite (>= x 0) (div x y) (- (div (- x) y))))
(define-fun __cmod ((x Int) (y Int)) Int (ite (>= x 0) (mod x y) (- (mod (- x) y))))
;; "pow2"
(declare-fun pow2 (Int) Int)

(declare-const two_power_size_minus_one Int)

;; "two_power_size_minus_one_val"
(assert (= two_power_size_minus_one (pow2 (- 16 1))))

;; "min"
(define-fun min ((x Int) (y Int)) Int
  (ite (<= x y) x y))

;; "max"
(define-fun max ((x Int) (y Int)) Int
  (ite (<= x y) y x))

;; "Min_r"
(assert (forall ((x Int) (y Int)) (=> (<= y x) (= (min x y) y))))

;; "Max_l"
(assert (forall ((x Int) (y Int)) (=> (<= y x) (= (max x y) x))))

;; "Min_comm"
(assert (forall ((x Int) (y Int)) (= (min x y) (min y x))))

;; "Max_comm"
(assert (forall ((x Int) (y Int)) (= (max x y) (max y x))))

;; "Min_assoc"
(assert
  (forall ((x Int) (y Int) (z Int)) (= (min (min x y) z) (min x (min y z)))))

;; "Max_assoc"
(assert
  (forall ((x Int) (y Int) (z Int)) (= (max (max x y) z) (max x (max y z)))))

;; "mod"
(define-fun mod1 ((x Int) (y Int)) Int
  (ite (<= 0 y) (mod x y) (- (mod (- x) y))))

(declare-sort t 0)

;; "in_range"
(define-fun in_range ((x (_ BitVec 16))) Bool
  (and (bvule #x0000 x) (bvule x #x0D00)))

(declare-datatypes ((t__init_wrapper 0))
  (((t__init_wrapperqtmk (rec__value t)(us_attr__init Bool)))))

;; "oadd"
(declare-fun oadd ((_ BitVec 16)
  (_ BitVec 16)) (_ BitVec 16))

;; "oadd__function_guard"
(declare-fun oadd__function_guard ((_ BitVec 16)
  (_ BitVec 16)
  (_ BitVec 16)) Bool)

;; "to_rep"
(declare-fun to_rep (t) (_ BitVec 16))

;; "of_rep"
(declare-fun of_rep ((_ BitVec 16)) t)

;; "inversion_axiom"
(assert
  (forall ((x t)) (! (= (of_rep (to_rep x)) x) :pattern ((to_rep x)) )))

;; "range_axiom"
(assert (forall ((x t)) (! (in_range (to_rep x)) :pattern ((to_rep x)) )))

;; "coerce_axiom"
(assert
  (forall ((x (_ BitVec 16)))
    (! (let ((y (bvurem x #x0D01)))
         (=> (in_range y) (= (to_rep (of_rep x)) y))) :pattern ((to_rep
                                                                  (of_rep x))) )))

(declare-sort map1 0)

;; "has_bounds"
(declare-fun has_bounds (map1
  Int
  Int) Bool)

;; "get"
(declare-fun get (map1
  Int) t)

(declare-const left map1)

(declare-const right map1)

(declare-sort map2 0)

;; "has_bounds"
(declare-fun has_bounds1 (map2
  Int
  Int) Bool)

;; "get"
(declare-fun get1 (map2
  Int) t__init_wrapper)

;; "set"
(declare-fun set (map2
  Int
  t__init_wrapper) map2)

;; "set_eq"
(assert
  (forall ((a map2) (i Int) (v t__init_wrapper))
    (! (= (get1 (set a i v) i) v) :pattern ((set a i v)) )))

;; "set_neq"
(assert
  (forall ((a map2) (i Int) (v t__init_wrapper))
    (! (forall ((j Int))
         (! (=> (not (= i j)) (= (get1 (set a i v) j) (get1 a j))) :pattern (
         (get1
           a
           j)) :pattern ((get1 (set a i v) j)) )) :pattern ((set a i v)) )))

;; "set_has_bounds"
(assert
  (forall ((a map2) (i Int) (f Int) (l Int) (v t__init_wrapper))
    (! (=>
         (and (<= f i) (<= i l))
         (=> (has_bounds1 a f l) (has_bounds1 (set a i v) f l))) :pattern (
    (has_bounds1
      (set a i v)
      f
      l)) )))

;; "oadd__post_axiom"
(assert
  (forall ((param__left (_ BitVec 16)) (param__right (_ BitVec 16)))
    (! (=>
         (and (in_range param__left) (in_range param__right))
         (let ((result (oadd param__left param__right)))
           (=>
             (oadd__function_guard result param__left param__right)
             (and
               (= result ((_ int2bv 16) (mod1
                                          (+ (bv2nat param__left) (bv2nat param__right))
                                          3329)))
               (in_range result))))) :pattern ((oadd
                                                 param__left
                                                 param__right)) )))

;; Goal "def'vc"
;; File "mlkem.adb", line 340, characters 0-0
(assert
  (not
  (forall ((r map2))
    (=>
      (has_bounds left 0 255)
      (=>
        (has_bounds right 0 255)
        (=>
          (has_bounds1 r 0 255)
          (forall ((i Int))
            (=>
              (= i 0)
              (=>
                (= (and (ite (<= 0 i) true false) (ite (<= i 255) true false)) true)
                (forall ((o (_ BitVec 16)))
                  (=>
                    (= (to_rep (get right i)) o)
                    (forall ((o1 (_ BitVec 16)))
                      (=>
                        (= (to_rep (get left i)) o1)
                        (let ((o2 (oadd o1 o)))
                          (=>
                            (and
                              (oadd__function_guard o2 o1 o)
                              (and
                                (in_range o2)
                                (= o2 ((_ int2bv 16) (mod1
                                                       (+ (bv2nat o1) (bv2nat o))
                                                       3329)))))
                            (forall ((o3 t))
                              (=>
                                (= (to_rep o3) o2)
                                (forall ((r1 map2))
                                  (=>
                                    (= r1 (set
                                            r
                                            i
                                            (t__init_wrapperqtmk o3 true)))
                                    (forall ((usf Int))
                                      (=>
                                        (= (and (ite (<= 0 usf) true false) 
                                        (ite (<= usf i)
                                          true
                                          false)) true)
                                        (=>
                                          (and (<= 0 usf) (<= usf 255))
                                          (=>
                                            (= (us_attr__init (get1 r1 usf)) true)
                                            (=>
                                              (and (<= 0 usf) (<= usf 255))
                                              (forall ((o4 (_ BitVec 16)))
                                                (=>
                                                  (= (to_rep (get right usf)) o4)
                                                  (=>
                                                    (and
                                                      (<= 0 usf)
                                                      (<= usf 255))
                                                    (forall ((o5 (_ BitVec 16)))
                                                      (=>
                                                        (= (to_rep
                                                             (get left usf)) o5)
                                                        (let ((o6 (oadd
                                                                    o5
                                                                    o4)))
                                                          (=>
                                                            (and
                                                              (oadd__function_guard
                                                                o6
                                                                o5
                                                                o4)
                                                              (and
                                                                (in_range o6)
                                                                (= o6 ((_ int2bv 16) 
                                                                (mod1
                                                                  (+ (bv2nat o5) (bv2nat o4))
                                                                  3329)))))
                                                            (and
                                                              (<= 0 usf)
                                                              (<= usf 255)))))))))))))))))))))))))))))))))

(check-sat)
